120
1000
200
199
198
198
198
198
198
197
197
196
196
196
196
195
193
193
193
193
192
192
192
191
191
190
189
189
189
188
187
187
187
187
187
187
185
185
184
184
184
184
183
183
183
182
181
181
181
181
181
180
178
178
178
178
178
178
177
177
177
177
177
175
175
174
174
174
173
173
173
172
172
172
171
171
170
170
170
170
170
170
169
169
168
167
166
166
166
165
164
163
163
162
162
161
161
161
161
160
160
160
159
159
159
159
158
158
158
157
157
157
156
155
154
153
153
152
152
151
150
150
